PreSolver/instances/dataset_final/sat_subsetcard_4_4_22665.cnf
c description: Subset cardinality formula for bipartite_random_left_regular(2,2,2)
c generator: CNFgen (0.9.0)
c copyright: (C) 2012-2020 Massimo Lauria <massimo.lauria@uniroma1.it>
c url: https://massimolauria.net/cnfgen
c
p cnf 4 4
1 2 0
3 4 0
-1 -3 0
-2 -4 0